p cnf 200 1110
-101 -82 0
-101 -4 0
-101 -24 0
-101 60 0
-101 8 0
-101 64 0
-101 -79 0
-101 -40 0
-101 38 0
-101 86 0
101 82 4 24 -60 -8 -64 79 40 -38 -86 0
-102 -89 0
-102 -54 0
-102 -88 0
-102 13 0
-102 8 0
-102 71 0
-102 -36 0
-102 -62 0
-102 81 0
-102 68 0
102 89 54 88 -13 -8 -71 36 62 -81 -68 0
-103 80 0
-103 -98 0
-103 93 0
-103 -21 0
-103 -17 0
-103 82 0
-103 -9 0
-103 4 0
-103 -78 0
-103 33 0
103 -80 98 -93 21 17 -82 9 -4 78 -33 0
-104 -14 0
-104 -30 0
-104 85 0
-104 -61 0
-104 -21 0
-104 -26 0
-104 96 0
-104 -90 0
-104 99 0
-104 -83 0
104 14 30 -85 61 21 26 -96 90 -99 83 0
-105 100 0
-105 -68 0
-105 -70 0
-105 -9 0
-105 14 0
-105 -89 0
-105 -34 0
-105 -84 0
-105 72 0
-105 35 0
105 -100 68 70 9 -14 89 34 84 -72 -35 0
-106 16 0
-106 75 0
-106 64 0
-106 -2 0
-106 -62 0
-106 -50 0
-106 13 0
-106 -36 0
-106 -40 0
-106 -9 0
106 -16 -75 -64 2 62 50 -13 36 40 9 0
-107 75 0
-107 47 0
-107 -68 0
-107 -22 0
-107 -71 0
-107 30 0
-107 -91 0
-107 -18 0
-107 -55 0
-107 -63 0
107 -75 -47 68 22 71 -30 91 18 55 63 0
-108 5 0
-108 35 0
-108 30 0
-108 -42 0
-108 -100 0
-108 -19 0
-108 82 0
-108 -72 0
-108 92 0
-108 63 0
108 -5 -35 -30 42 100 19 -82 72 -92 -63 0
-109 68 0
-109 -97 0
-109 -8 0
-109 -36 0
-109 -79 0
-109 94 0
-109 -100 0
-109 -78 0
-109 -32 0
-109 -66 0
109 -68 97 8 36 79 -94 100 78 32 66 0
-110 -25 0
-110 -75 0
-110 -31 0
-110 9 0
-110 47 0
-110 8 0
-110 -40 0
-110 -12 0
-110 -33 0
-110 48 0
110 25 75 31 -9 -47 -8 40 12 33 -48 0
101 102 103 104 105 106 107 108 109 110 0
-111 -97 0
-111 38 0
-111 -40 0
-111 27 0
-111 -94 0
-111 44 0
-111 64 0
-111 -66 0
-111 7 0
-111 -100 0
111 97 -38 40 -27 94 -44 -64 66 -7 100 0
-112 96 0
-112 36 0
-112 -40 0
-112 83 0
-112 33 0
-112 20 0
-112 78 0
-112 34 0
-112 -59 0
-112 53 0
112 -96 -36 40 -83 -33 -20 -78 -34 59 -53 0
-113 -16 0
-113 -62 0
-113 96 0
-113 -15 0
-113 3 0
-113 -43 0
-113 80 0
-113 -10 0
-113 -93 0
-113 18 0
113 16 62 -96 15 -3 43 -80 10 93 -18 0
-114 14 0
-114 28 0
-114 -65 0
-114 -82 0
-114 -77 0
-114 -83 0
-114 34 0
-114 54 0
-114 23 0
-114 -21 0
114 -14 -28 65 82 77 83 -34 -54 -23 21 0
-115 -59 0
-115 77 0
-115 42 0
-115 10 0
-115 -73 0
-115 32 0
-115 -25 0
-115 36 0
-115 -44 0
-115 -15 0
115 59 -77 -42 -10 73 -32 25 -36 44 15 0
-116 -98 0
-116 -90 0
-116 83 0
-116 51 0
-116 43 0
-116 -44 0
-116 -72 0
-116 -12 0
-116 -60 0
-116 56 0
116 98 90 -83 -51 -43 44 72 12 60 -56 0
-117 -50 0
-117 64 0
-117 -94 0
-117 -40 0
-117 -89 0
-117 -23 0
-117 -19 0
-117 -61 0
-117 -33 0
-117 65 0
117 50 -64 94 40 89 23 19 61 33 -65 0
-118 79 0
-118 65 0
-118 -66 0
-118 -70 0
-118 96 0
-118 -57 0
-118 40 0
-118 -52 0
-118 18 0
-118 -23 0
118 -79 -65 66 70 -96 57 -40 52 -18 23 0
-119 33 0
-119 -31 0
-119 3 0
-119 -57 0
-119 -22 0
-119 -4 0
-119 -43 0
-119 -19 0
-119 81 0
-119 10 0
119 -33 31 -3 57 22 4 43 19 -81 -10 0
-120 89 0
-120 96 0
-120 25 0
-120 55 0
-120 -44 0
-120 -50 0
-120 59 0
-120 -95 0
-120 58 0
-120 93 0
120 -89 -96 -25 -55 44 50 -59 95 -58 -93 0
111 112 113 114 115 116 117 118 119 120 0
-121 -78 0
-121 -5 0
-121 -94 0
-121 -28 0
-121 -14 0
-121 -2 0
-121 47 0
-121 72 0
-121 1 0
-121 -33 0
121 78 5 94 28 14 2 -47 -72 -1 33 0
-122 -79 0
-122 1 0
-122 68 0
-122 15 0
-122 -52 0
-122 -74 0
-122 -46 0
-122 25 0
-122 -78 0
-122 -76 0
122 79 -1 -68 -15 52 74 46 -25 78 76 0
-123 16 0
-123 -63 0
-123 -40 0
-123 -45 0
-123 73 0
-123 -14 0
-123 -84 0
-123 37 0
-123 -10 0
-123 69 0
123 -16 63 40 45 -73 14 84 -37 10 -69 0
-124 -90 0
-124 52 0
-124 34 0
-124 58 0
-124 -18 0
-124 -37 0
-124 -83 0
-124 -70 0
-124 -45 0
-124 24 0
124 90 -52 -34 -58 18 37 83 70 45 -24 0
-125 43 0
-125 29 0
-125 8 0
-125 68 0
-125 -87 0
-125 -26 0
-125 76 0
-125 -82 0
-125 90 0
-125 81 0
125 -43 -29 -8 -68 87 26 -76 82 -90 -81 0
-126 -74 0
-126 -88 0
-126 -10 0
-126 95 0
-126 -44 0
-126 -26 0
-126 -58 0
-126 -23 0
-126 42 0
-126 79 0
126 74 88 10 -95 44 26 58 23 -42 -79 0
-127 -74 0
-127 28 0
-127 69 0
-127 -45 0
-127 -14 0
-127 8 0
-127 23 0
-127 100 0
-127 -7 0
-127 98 0
127 74 -28 -69 45 14 -8 -23 -100 7 -98 0
-128 -28 0
-128 -2 0
-128 -19 0
-128 48 0
-128 50 0
-128 82 0
-128 -80 0
-128 -6 0
-128 -78 0
-128 44 0
128 28 2 19 -48 -50 -82 80 6 78 -44 0
-129 -62 0
-129 -24 0
-129 12 0
-129 -38 0
-129 16 0
-129 75 0
-129 -78 0
-129 5 0
-129 -14 0
-129 36 0
129 62 24 -12 38 -16 -75 78 -5 14 -36 0
-130 -28 0
-130 -60 0
-130 49 0
-130 -91 0
-130 57 0
-130 -3 0
-130 9 0
-130 69 0
-130 73 0
-130 -37 0
130 28 60 -49 91 -57 3 -9 -69 -73 37 0
121 122 123 124 125 126 127 128 129 130 0
-131 -8 0
-131 -43 0
-131 64 0
-131 -2 0
-131 -76 0
-131 68 0
-131 88 0
-131 -91 0
-131 -85 0
-131 96 0
131 8 43 -64 2 76 -68 -88 91 85 -96 0
-132 -31 0
-132 -19 0
-132 43 0
-132 -83 0
-132 -11 0
-132 -75 0
-132 -3 0
-132 -56 0
-132 -41 0
-132 65 0
132 31 19 -43 83 11 75 3 56 41 -65 0
-133 -84 0
-133 1 0
-133 53 0
-133 -75 0
-133 -50 0
-133 79 0
-133 76 0
-133 30 0
-133 -51 0
-133 56 0
133 84 -1 -53 75 50 -79 -76 -30 51 -56 0
-134 57 0
-134 67 0
-134 32 0
-134 79 0
-134 -3 0
-134 -69 0
-134 -71 0
-134 -29 0
-134 9 0
-134 -68 0
134 -57 -67 -32 -79 3 69 71 29 -9 68 0
-135 -52 0
-135 32 0
-135 -33 0
-135 -94 0
-135 35 0
-135 50 0
-135 60 0
-135 -5 0
-135 -75 0
-135 -49 0
135 52 -32 33 94 -35 -50 -60 5 75 49 0
-136 -52 0
-136 3 0
-136 -33 0
-136 -62 0
-136 -88 0
-136 -77 0
-136 69 0
-136 61 0
-136 31 0
-136 8 0
136 52 -3 33 62 88 77 -69 -61 -31 -8 0
-137 -59 0
-137 62 0
-137 -20 0
-137 54 0
-137 91 0
-137 79 0
-137 -75 0
-137 -50 0
-137 -74 0
-137 -39 0
137 59 -62 20 -54 -91 -79 75 50 74 39 0
-138 -58 0
-138 15 0
-138 -26 0
-138 87 0
-138 -21 0
-138 12 0
-138 -53 0
-138 88 0
-138 -94 0
-138 74 0
138 58 -15 26 -87 21 -12 53 -88 94 -74 0
-139 10 0
-139 -91 0
-139 -24 0
-139 -15 0
-139 -17 0
-139 48 0
-139 -43 0
-139 -41 0
-139 35 0
-139 39 0
139 -10 91 24 15 17 -48 43 41 -35 -39 0
-140 55 0
-140 -69 0
-140 -7 0
-140 -25 0
-140 -40 0
-140 16 0
-140 2 0
-140 3 0
-140 52 0
-140 -97 0
140 -55 69 7 25 40 -16 -2 -3 -52 97 0
131 132 133 134 135 136 137 138 139 140 0
-141 -5 0
-141 98 0
-141 -33 0
-141 -36 0
-141 -74 0
-141 -1 0
-141 -61 0
-141 -58 0
-141 -2 0
-141 46 0
141 5 -98 33 36 74 1 61 58 2 -46 0
-142 39 0
-142 -92 0
-142 -73 0
-142 26 0
-142 69 0
-142 -23 0
-142 2 0
-142 -64 0
-142 40 0
-142 32 0
142 -39 92 73 -26 -69 23 -2 64 -40 -32 0
-143 -43 0
-143 -10 0
-143 90 0
-143 13 0
-143 98 0
-143 -96 0
-143 7 0
-143 -49 0
-143 -5 0
-143 67 0
143 43 10 -90 -13 -98 96 -7 49 5 -67 0
-144 93 0
-144 -95 0
-144 35 0
-144 -7 0
-144 84 0
-144 -94 0
-144 -80 0
-144 -69 0
-144 -73 0
-144 -92 0
144 -93 95 -35 7 -84 94 80 69 73 92 0
-145 40 0
-145 -78 0
-145 -22 0
-145 53 0
-145 -32 0
-145 16 0
-145 -56 0
-145 96 0
-145 7 0
-145 63 0
145 -40 78 22 -53 32 -16 56 -96 -7 -63 0
-146 39 0
-146 -18 0
-146 -10 0
-146 58 0
-146 34 0
-146 -80 0
-146 -48 0
-146 74 0
-146 -96 0
-146 -45 0
146 -39 18 10 -58 -34 80 48 -74 96 45 0
-147 -30 0
-147 -18 0
-147 39 0
-147 -86 0
-147 -91 0
-147 33 0
-147 63 0
-147 51 0
-147 65 0
-147 1 0
147 30 18 -39 86 91 -33 -63 -51 -65 -1 0
-148 -39 0
-148 36 0
-148 69 0
-148 25 0
-148 35 0
-148 61 0
-148 -43 0
-148 -95 0
-148 -57 0
-148 -24 0
148 39 -36 -69 -25 -35 -61 43 95 57 24 0
-149 31 0
-149 55 0
-149 56 0
-149 46 0
-149 -20 0
-149 78 0
-149 -18 0
-149 -90 0
-149 81 0
-149 -47 0
149 -31 -55 -56 -46 20 -78 18 90 -81 47 0
-150 29 0
-150 -40 0
-150 -42 0
-150 49 0
-150 62 0
-150 -46 0
-150 3 0
-150 -22 0
-150 56 0
-150 31 0
150 -29 40 42 -49 -62 46 -3 22 -56 -31 0
141 142 143 144 145 146 147 148 149 150 0
-151 -53 0
-151 -3 0
-151 25 0
-151 7 0
-151 -36 0
-151 -33 0
-151 -30 0
-151 38 0
-151 94 0
-151 -26 0
151 53 3 -25 -7 36 33 30 -38 -94 26 0
-152 -96 0
-152 18 0
-152 -97 0
-152 82 0
-152 93 0
-152 -98 0
-152 -77 0
-152 -66 0
-152 -33 0
-152 51 0
152 96 -18 97 -82 -93 98 77 66 33 -51 0
-153 -59 0
-153 98 0
-153 92 0
-153 -56 0
-153 -7 0
-153 8 0
-153 11 0
-153 3 0
-153 -62 0
-153 -66 0
153 59 -98 -92 56 7 -8 -11 -3 62 66 0
-154 87 0
-154 -67 0
-154 41 0
-154 51 0
-154 22 0
-154 76 0
-154 -95 0
-154 94 0
-154 39 0
-154 100 0
154 -87 67 -41 -51 -22 -76 95 -94 -39 -100 0
-155 47 0
-155 -88 0
-155 -25 0
-155 -33 0
-155 21 0
-155 -30 0
-155 44 0
-155 -71 0
-155 65 0
-155 -12 0
155 -47 88 25 33 -21 30 -44 71 -65 12 0
-156 -71 0
-156 -86 0
-156 80 0
-156 -67 0
-156 -99 0
-156 78 0
-156 -20 0
-156 -76 0
-156 -18 0
-156 -2 0
156 71 86 -80 67 99 -78 20 76 18 2 0
-157 64 0
-157 -18 0
-157 -77 0
-157 33 0
-157 -65 0
-157 31 0
-157 72 0
-157 -3 0
-157 -21 0
-157 -46 0
157 -64 18 77 -33 65 -31 -72 3 21 46 0
-158 -49 0
-158 -19 0
-158 55 0
-158 38 0
-158 1 0
-158 -86 0
-158 97 0
-158 17 0
-158 -41 0
-158 -79 0
158 49 19 -55 -38 -1 86 -97 -17 41 79 0
-159 -44 0
-159 -98 0
-159 9 0
-159 -28 0
-159 -19 0
-159 76 0
-159 -52 0
-159 -3 0
-159 -72 0
-159 68 0
159 44 98 -9 28 19 -76 52 3 72 -68 0
-160 61 0
-160 -18 0
-160 5 0
-160 73 0
-160 -100 0
-160 93 0
-160 20 0
-160 63 0
-160 19 0
-160 -79 0
160 -61 18 -5 -73 100 -93 -20 -63 -19 79 0
151 152 153 154 155 156 157 158 159 160 0
-161 6 0
-161 92 0
-161 70 0
-161 -98 0
-161 83 0
-161 -10 0
-161 3 0
-161 97 0
-161 36 0
-161 77 0
161 -6 -92 -70 98 -83 10 -3 -97 -36 -77 0
-162 34 0
-162 79 0
-162 59 0
-162 -50 0
-162 26 0
-162 -58 0
-162 19 0
-162 -21 0
-162 48 0
-162 7 0
162 -34 -79 -59 50 -26 58 -19 21 -48 -7 0
-163 100 0
-163 28 0
-163 96 0
-163 -22 0
-163 67 0
-163 13 0
-163 -52 0
-163 43 0
-163 31 0
-163 20 0
163 -100 -28 -96 22 -67 -13 52 -43 -31 -20 0
-164 37 0
-164 67 0
-164 81 0
-164 61 0
-164 99 0
-164 -59 0
-164 40 0
-164 98 0
-164 -5 0
-164 -96 0
164 -37 -67 -81 -61 -99 59 -40 -98 5 96 0
-165 -25 0
-165 62 0
-165 -38 0
-165 -33 0
-165 -32 0
-165 -59 0
-165 37 0
-165 -14 0
-165 -57 0
-165 -97 0
165 25 -62 38 33 32 59 -37 14 57 97 0
-166 -81 0
-166 51 0
-166 -27 0
-166 -11 0
-166 -17 0
-166 26 0
-166 87 0
-166 -37 0
-166 -64 0
-166 -76 0
166 81 -51 27 11 17 -26 -87 37 64 76 0
-167 -86 0
-167 -4 0
-167 -46 0
-167 -32 0
-167 58 0
-167 15 0
-167 25 0
-167 -2 0
-167 29 0
-167 -49 0
167 86 4 46 32 -58 -15 -25 2 -29 49 0
-168 96 0
-168 -53 0
-168 -77 0
-168 100 0
-168 -55 0
-168 81 0
-168 -37 0
-168 -31 0
-168 4 0
-168 -41 0
168 -96 53 77 -100 55 -81 37 31 -4 41 0
-169 2 0
-169 -40 0
-169 -43 0
-169 89 0
-169 85 0
-169 39 0
-169 59 0
-169 -100 0
-169 -67 0
-169 45 0
169 -2 40 43 -89 -85 -39 -59 100 67 -45 0
-170 14 0
-170 11 0
-170 -20 0
-170 -41 0
-170 -88 0
-170 92 0
-170 -79 0
-170 77 0
-170 4 0
-170 -19 0
170 -14 -11 20 41 88 -92 79 -77 -4 19 0
161 162 163 164 165 166 167 168 169 170 0
-171 68 0
-171 14 0
-171 -13 0
-171 -65 0
-171 -2 0
-171 1 0
-171 25 0
-171 21 0
-171 30 0
-171 64 0
171 -68 -14 13 65 2 -1 -25 -21 -30 -64 0
-172 51 0
-172 89 0
-172 -22 0
-172 73 0
-172 65 0
-172 -7 0
-172 -69 0
-172 -4 0
-172 53 0
-172 -91 0
172 -51 -89 22 -73 -65 7 69 4 -53 91 0
-173 37 0
-173 6 0
-173 25 0
-173 87 0
-173 -47 0
-173 51 0
-173 -45 0
-173 36 0
-173 82 0
-173 84 0
173 -37 -6 -25 -87 47 -51 45 -36 -82 -84 0
-174 -21 0
-174 -9 0
-174 27 0
-174 -4 0
-174 66 0
-174 75 0
-174 18 0
-174 -22 0
-174 -32 0
-174 -28 0
174 21 9 -27 4 -66 -75 -18 22 32 28 0
-175 95 0
-175 73 0
-175 -62 0
-175 -11 0
-175 -25 0
-175 -59 0
-175 60 0
-175 -53 0
-175 -78 0
-175 -71 0
175 -95 -73 62 11 25 59 -60 53 78 71 0
-176 40 0
-176 -66 0
-176 12 0
-176 -50 0
-176 29 0
-176 92 0
-176 -1 0
-176 -84 0
-176 26 0
-176 -27 0
176 -40 66 -12 50 -29 -92 1 84 -26 27 0
-177 -20 0
-177 7 0
-177 -12 0
-177 87 0
-177 -97 0
-177 -91 0
-177 -67 0
-177 -84 0
-177 -1 0
-177 -36 0
177 20 -7 12 -87 97 91 67 84 1 36 0
-178 33 0
-178 -24 0
-178 79 0
-178 3 0
-178 42 0
-178 -52 0
-178 -99 0
-178 -57 0
-178 -92 0
-178 -74 0
178 -33 24 -79 -3 -42 52 99 57 92 74 0
-179 -66 0
-179 25 0
-179 48 0
-179 -76 0
-179 -7 0
-179 70 0
-179 -78 0
-179 -31 0
-179 75 0
-179 -18 0
179 66 -25 -48 76 7 -70 78 31 -75 18 0
-180 -21 0
-180 -9 0
-180 -25 0
-180 59 0
-180 -60 0
-180 -31 0
-180 -43 0
-180 -10 0
-180 46 0
-180 -86 0
180 21 9 25 -59 60 31 43 10 -46 86 0
171 172 173 174 175 176 177 178 179 180 0
-181 -14 0
-181 100 0
-181 -83 0
-181 99 0
-181 -26 0
-181 -20 0
-181 63 0
-181 31 0
-181 55 0
-181 47 0
181 14 -100 83 -99 26 20 -63 -31 -55 -47 0
-182 -58 0
-182 -11 0
-182 -95 0
-182 86 0
-182 -87 0
-182 54 0
-182 7 0
-182 28 0
-182 22 0
-182 68 0
182 58 11 95 -86 87 -54 -7 -28 -22 -68 0
-183 -72 0
-183 -71 0
-183 88 0
-183 -11 0
-183 -4 0
-183 64 0
-183 98 0
-183 -84 0
-183 77 0
-183 93 0
183 72 71 -88 11 4 -64 -98 84 -77 -93 0
-184 58 0
-184 -70 0
-184 37 0
-184 38 0
-184 -44 0
-184 34 0
-184 22 0
-184 48 0
-184 86 0
-184 -13 0
184 -58 70 -37 -38 44 -34 -22 -48 -86 13 0
-185 47 0
-185 43 0
-185 64 0
-185 65 0
-185 49 0
-185 -33 0
-185 -24 0
-185 63 0
-185 -27 0
-185 88 0
185 -47 -43 -64 -65 -49 33 24 -63 27 -88 0
-186 -31 0
-186 78 0
-186 57 0
-186 -27 0
-186 54 0
-186 -94 0
-186 -52 0
-186 -33 0
-186 -81 0
-186 97 0
186 31 -78 -57 27 -54 94 52 33 81 -97 0
-187 24 0
-187 -84 0
-187 -86 0
-187 -21 0
-187 -76 0
-187 35 0
-187 62 0
-187 -47 0
-187 89 0
-187 100 0
187 -24 84 86 21 76 -35 -62 47 -89 -100 0
-188 -74 0
-188 21 0
-188 79 0
-188 70 0
-188 -95 0
-188 33 0
-188 -34 0
-188 36 0
-188 39 0
-188 27 0
188 74 -21 -79 -70 95 -33 34 -36 -39 -27 0
-189 5 0
-189 19 0
-189 -17 0
-189 -26 0
-189 -74 0
-189 -28 0
-189 -56 0
-189 -23 0
-189 -27 0
-189 -3 0
189 -5 -19 17 26 74 28 56 23 27 3 0
-190 -12 0
-190 -84 0
-190 10 0
-190 -68 0
-190 -7 0
-190 -58 0
-190 98 0
-190 -45 0
-190 85 0
-190 55 0
190 12 84 -10 68 7 58 -98 45 -85 -55 0
181 182 183 184 185 186 187 188 189 190 0
-191 -90 0
-191 -79 0
-191 -60 0
-191 -28 0
-191 73 0
-191 46 0
-191 -21 0
-191 8 0
-191 10 0
-191 27 0
191 90 79 60 28 -73 -46 21 -8 -10 -27 0
-192 89 0
-192 -71 0
-192 -17 0
-192 -53 0
-192 73 0
-192 80 0
-192 -10 0
-192 2 0
-192 35 0
-192 8 0
192 -89 71 17 53 -73 -80 10 -2 -35 -8 0
-193 96 0
-193 34 0
-193 95 0
-193 32 0
-193 65 0
-193 -66 0
-193 -22 0
-193 -11 0
-193 -52 0
-193 18 0
193 -96 -34 -95 -32 -65 66 22 11 52 -18 0
-194 -42 0
-194 98 0
-194 -18 0
-194 -59 0
-194 95 0
-194 -90 0
-194 53 0
-194 -41 0
-194 86 0
-194 -13 0
194 42 -98 18 59 -95 90 -53 41 -86 13 0
-195 63 0
-195 93 0
-195 -74 0
-195 8 0
-195 -47 0
-195 -16 0
-195 -10 0
-195 90 0
-195 -66 0
-195 30 0
195 -63 -93 74 -8 47 16 10 -90 66 -30 0
-196 20 0
-196 90 0
-196 8 0
-196 59 0
-196 -81 0
-196 25 0
-196 -68 0
-196 37 0
-196 -10 0
-196 21 0
196 -20 -90 -8 -59 81 -25 68 -37 10 -21 0
-197 58 0
-197 3 0
-197 -27 0
-197 39 0
-197 8 0
-197 -35 0
-197 95 0
-197 -89 0
-197 92 0
-197 -100 0
197 -58 -3 27 -39 -8 35 -95 89 -92 100 0
-198 -5 0
-198 24 0
-198 35 0
-198 -88 0
-198 48 0
-198 87 0
-198 25 0
-198 -19 0
-198 -80 0
-198 81 0
198 5 -24 -35 88 -48 -87 -25 19 80 -81 0
-199 -79 0
-199 -41 0
-199 86 0
-199 -23 0
-199 78 0
-199 48 0
-199 -4 0
-199 -27 0
-199 74 0
-199 47 0
199 79 41 -86 23 -78 -48 4 27 -74 -47 0
-200 46 0
-200 -90 0
-200 -40 0
-200 72 0
-200 61 0
-200 -18 0
-200 34 0
-200 -14 0
-200 20 0
-200 31 0
200 -46 90 40 -72 -61 18 -34 14 -20 -31 0
191 192 193 194 195 196 197 198 199 200 0
